\ Model matlab
\ LP format - for model browsing. Use MPS format to capture full model detail.
Minimize
  - 271434 C0 + 271434 C1 - 89928 C2 + 89928 C3 - 29430 C4 + 29430 C5
   - 9252 C6 + 9252 C7 - 2466 C8 + 2466 C9 + 7.21076788e+08 C10
   + 7.21076788e+08 C11 + 1.03002512e+08 C12 + 1.03002512e+08 C13
   + 1.4706114e+07 C14 + 1.4706114e+07 C15 + 2.091784e+06 C16
   + 2.091784e+06 C17 + 285776 C18 + 285776 C19 + 511.8424385602001 C20
   - 511.8424385602001 C21 + 341.0093077820001 C22 - 341.0093077820001 C23
   + 205.48646162 C24 - 205.48646162 C25 + 104.0418742 C26
   - 104.0418742 C27 + 35.753322 C28 - 35.753322 C29
   - 2.257879373488e+13 C30 - 2.257879373488e+13 C31
   - 1.128939048448e+12 C32 - 1.128939048448e+12 C33 - 5.6446313376e+10 C34
   - 5.6446313376e+10 C35 - 2.821661504e+09 C36 - 2.821661504e+09 C37
   - 1.40126432e+08 C38 - 1.40126432e+08 C39 + [ 264276 C0 ^2
   + 175216 C0 * C2 + 57420 C0 * C4 + 18104 C0 * C6 + 4852 C0 * C8
   + 264276 C1 ^2 + 175216 C1 * C3 + 57420 C1 * C5 + 18104 C1 * C7
   + 4852 C1 * C9 + 29050 C2 ^2 + 19044 C2 * C4 + 6008 C2 * C6
   + 1612 C2 * C8 + 29050 C3 ^2 + 19044 C3 * C5 + 6008 C3 * C7
   + 1612 C3 * C9 + 3128 C4 ^2 + 1976 C4 * C6 + 532 C4 * C8 + 3128 C5 ^2
   + 1976 C5 * C7 + 532 C5 * C9 + 318 C6 ^2 + 172 C6 * C8 + 318 C7 ^2
   + 172 C7 * C9 + 28 C8 ^2 + 28 C9 ^2 + 7.2088077e+08 C10 ^2
   + 2.05949104e+08 C10 * C12 + 2.9404308e+07 C10 * C14
   + 4.182488e+06 C10 * C16 + 571432 C10 * C18 + 7.2088077e+08 C11 ^2
   + 2.05949104e+08 C11 * C13 + 2.9404308e+07 C11 * C15
   + 4.182488e+06 C11 * C17 + 571432 C11 * C19 + 1.4709454e+07 C12 ^2
   + 4.200276e+06 C12 * C14 + 597452 C12 * C16 + 81628 C12 * C18
   + 1.4709454e+07 C13 ^2 + 4.200276e+06 C13 * C15 + 597452 C13 * C17
   + 81628 C13 * C19 + 299852 C14 ^2 + 85304 C14 * C16 + 11656 C14 * C18
   + 299852 C15 ^2 + 85304 C15 * C17 + 11656 C15 * C19 + 6072 C16 ^2
   + 1660 C16 * C18 + 6072 C17 ^2 + 1660 C17 * C19 + 118 C18 ^2
   + 118 C19 ^2 + 170.7204385602001 C20 ^2 + 239.9786155640001 C20 * C22
   + 154.5729232400001 C20 * C24 + 84.0837484 C20 * C26
   + 31.506644 C20 * C28 + 170.7204385602001 C21 ^2
   + 239.9786155640001 C21 * C23 + 154.5729232400001 C21 * C25
   + 84.0837484 C21 * C27 + 31.506644 C21 * C29 + 90.98846162000004 C22 ^2
   + 117.2117484 C22 * C24 + 65.16704400000002 C22 * C26
   + 25.00604000000001 C22 * C28 + 90.98846162000004 C23 ^2
   + 117.2117484 C23 * C25 + 65.16704400000002 C23 * C27
   + 25.00604000000001 C23 * C29 + 43.62352200000002 C24 ^2
   + 47.97004000000001 C24 * C26 + 19.0964 C24 * C28
   + 43.62352200000002 C25 ^2 + 47.97004000000001 C25 * C27
   + 19.0964 C25 * C29 + 18.1682 C26 ^2 + 13.724 C26 * C28 + 18.1682 C27 ^2
   + 13.724 C27 * C29 + 6.42 C28 ^2 + 6.42 C29 ^2
   + 2.2578772460682e+13 C30 ^2 + 2.257875969536e+12 C30 * C32
   + 1.12892520432e+11 C30 * C34 + 5.643317728e+09 C30 * C36
   + 2.80252624e+08 C30 * C38 + 2.2578772460682e+13 C31 ^2
   + 2.257875969536e+12 C31 * C33 + 1.12892520432e+11 C31 * C35
   + 5.643317728e+09 C31 * C37 + 2.80252624e+08 C31 * C39
   + 5.644686733e+10 C32 ^2 + 5.644622832e+09 C32 * C34
   + 2.82165728e+08 C32 * C36 + 1.4012624e+07 C32 * C38
   + 5.644686733e+10 C33 ^2 + 5.644622832e+09 C33 * C35
   + 2.82165728e+08 C33 * C37 + 1.4012624e+07 C33 * C39
   + 1.41113978e+08 C34 ^2 + 1.4108128e+07 C34 * C36 + 700624 C34 * C38
   + 1.41113978e+08 C35 ^2 + 1.4108128e+07 C35 * C37 + 700624 C35 * C39
   + 352626 C36 ^2 + 35024 C36 * C38 + 352626 C37 ^2 + 35024 C37 * C39
   + 874 C38 ^2 + 874 C39 ^2 ] / 2 
Subject To
 R0: 242 C0 + 80 C2 + 26 C4 + 8 C6 + 2 C8 - 8403 C10 - 1200 C12 - 171 C14
   - 24 C16 - 3 C18 = 8665
 R1: 242 C1 + 80 C3 + 26 C5 + 8 C7 + 2 C9 - 8403 C11 - 1200 C13 - 171 C15
   - 24 C17 - 3 C19 = 8161
 R2: 243 C0 + 81 C2 + 27 C4 + 9 C6 + 3 C8 - 16807 C10 - 2401 C12 - 343 C14
   - 49 C16 - 7 C18 = 17050
 R3: 243 C1 + 81 C3 + 27 C5 + 9 C7 + 3 C9 - 16807 C11 - 2401 C13 - 343 C15
   - 49 C17 - 7 C19 = 16564
 R4: 8403 C10 + 1200 C12 + 171 C14 + 24 C16 + 3 C18 - 6.1051 C20
   - 4.641 C22 - 3.31 C24 - 2.1 C26 - C28 = -8396.894899999999
 R5: 8403 C11 + 1200 C13 + 171 C15 + 24 C17 + 3 C19 - 6.1051 C21
   - 4.641 C23 - 3.31 C25 - 2.1 C27 - C29 = -8429.105100000001
 R6: 16807 C10 + 2401 C12 + 343 C14 + 49 C16 + 7 C18 - 1.61051 C20
   - 1.4641 C22 - 1.331 C24 - 1.21 C26 - 1.1 C28 = -16805.38949
 R7: 16807 C11 + 2401 C13 + 343 C15 + 49 C17 + 7 C19 - 1.61051 C21
   - 1.4641 C23 - 1.331 C25 - 1.21 C27 - 1.1 C29 = -16808.61051
 R8: 6.1051 C20 + 4.641 C22 + 3.31 C24 + 2.1 C26 + C28 - 1.010526e+06 C30
   - 50526 C32 - 2526 C34 - 126 C36 - 6 C38 = -1.0105521051e+06
 R9: 6.1051 C21 + 4.641 C23 + 3.31 C25 + 2.1 C27 + C29 - 1.010526e+06 C31
   - 50526 C33 - 2526 C35 - 126 C37 - 6 C39 = -1.0105198949e+06
 R10: 1.61051 C20 + 1.4641 C22 + 1.331 C24 + 1.21 C26 + 1.1 C28
   - 3.2e+06 C30 - 160000 C32 - 8000 C34 - 400 C36 - 20 C38
   = -3.20000161051e+06
 R11: 1.61051 C21 + 1.4641 C23 + 1.331 C25 + 1.21 C27 + 1.1 C29
   - 3.2e+06 C31 - 160000 C33 - 8000 C35 - 400 C37 - 20 C39
   = -3.19999838949e+06
 R12: - C0 <= 20
 R13: C0 <= 20
 R14: - C1 <= 20
 R15: C1 <= 20
 R16: - C2 <= 20
 R17: C2 <= 20
 R18: - C3 <= 20
 R19: C3 <= 20
 R20: - C4 <= 20
 R21: C4 <= 20
 R22: - C5 <= 20
 R23: C5 <= 20
 R24: - C6 <= 20
 R25: C6 <= 20
 R26: - C7 <= 20
 R27: C7 <= 20
 R28: - C8 <= 20
 R29: C8 <= 20
 R30: - C9 <= 20
 R31: C9 <= 20
 R32: - C10 <= 20
 R33: C10 <= 20
 R34: - C11 <= 20
 R35: C11 <= 20
 R36: - C12 <= 20
 R37: C12 <= 20
 R38: - C13 <= 20
 R39: C13 <= 20
 R40: - C14 <= 20
 R41: C14 <= 20
 R42: - C15 <= 20
 R43: C15 <= 20
 R44: - C16 <= 20
 R45: C16 <= 20
 R46: - C17 <= 20
 R47: C17 <= 20
 R48: - C18 <= 20
 R49: C18 <= 20
 R50: - C19 <= 20
 R51: C19 <= 20
 R52: - C20 <= 20
 R53: C20 <= 20
 R54: - C21 <= 20
 R55: C21 <= 20
 R56: - C22 <= 20
 R57: C22 <= 20
 R58: - C23 <= 20
 R59: C23 <= 20
 R60: - C24 <= 20
 R61: C24 <= 20
 R62: - C25 <= 20
 R63: C25 <= 20
 R64: - C26 <= 20
 R65: C26 <= 20
 R66: - C27 <= 20
 R67: C27 <= 20
 R68: - C28 <= 20
 R69: C28 <= 20
 R70: - C29 <= 20
 R71: C29 <= 20
 R72: - C30 <= 20
 R73: C30 <= 20
 R74: - C31 <= 20
 R75: C31 <= 20
 R76: - C32 <= 20
 R77: C32 <= 20
 R78: - C33 <= 20
 R79: C33 <= 20
 R80: - C34 <= 20
 R81: C34 <= 20
 R82: - C35 <= 20
 R83: C35 <= 20
 R84: - C36 <= 20
 R85: C36 <= 20
 R86: - C37 <= 20
 R87: C37 <= 20
 R88: - C38 <= 20
 R89: C38 <= 20
 R90: - C39 <= 20
 R91: C39 <= 20
Bounds
 -20 <= C0 <= 20
 -20 <= C1 <= 20
 -20 <= C2 <= 20
 -20 <= C3 <= 20
 -20 <= C4 <= 20
 -20 <= C5 <= 20
 -20 <= C6 <= 20
 -20 <= C7 <= 20
 -20 <= C8 <= 20
 -20 <= C9 <= 20
 -20 <= C10 <= 20
 -20 <= C11 <= 20
 -20 <= C12 <= 20
 -20 <= C13 <= 20
 -20 <= C14 <= 20
 -20 <= C15 <= 20
 -20 <= C16 <= 20
 -20 <= C17 <= 20
 -20 <= C18 <= 20
 -20 <= C19 <= 20
 -20 <= C20 <= 20
 -20 <= C21 <= 20
 -20 <= C22 <= 20
 -20 <= C23 <= 20
 -20 <= C24 <= 20
 -20 <= C25 <= 20
 -20 <= C26 <= 20
 -20 <= C27 <= 20
 -20 <= C28 <= 20
 -20 <= C29 <= 20
 -20 <= C30 <= 20
 -20 <= C31 <= 20
 -20 <= C32 <= 20
 -20 <= C33 <= 20
 -20 <= C34 <= 20
 -20 <= C35 <= 20
 -20 <= C36 <= 20
 -20 <= C37 <= 20
 -20 <= C38 <= 20
 -20 <= C39 <= 20
End
